\ Model RRP
\ LP format - for model browsing. Use MPS format to capture full model detail.
Minimize
  6 x_kij[0,0,1] + 8 x_kij[0,0,2] + 12 x_kij[0,0,3] + 100 x_kij[0,0,4]
   + 100 x_kij[0,0,5] + 100 x_kij[0,0,6] + 100 x_kij[0,0,7]
   + 6 x_kij[0,1,0] + 7 x_kij[0,1,2] + 5 x_kij[0,1,3] + 100 x_kij[0,1,4]
   + 15 x_kij[0,1,5] + 100 x_kij[0,1,6] + 100 x_kij[0,1,7] + 8 x_kij[0,2,0]
   + 7 x_kij[0,2,1] + 4 x_kij[0,2,3] + 15 x_kij[0,2,4] + 100 x_kij[0,2,5]
   + 100 x_kij[0,2,6] + 100 x_kij[0,2,7] + 12 x_kij[0,3,0] + 5 x_kij[0,3,1]
   + 4 x_kij[0,3,2] + 10 x_kij[0,3,4] + 7 x_kij[0,3,5] + 15 x_kij[0,3,6]
   + 100 x_kij[0,3,7] + 100 x_kij[0,4,0] + 100 x_kij[0,4,1]
   + 15 x_kij[0,4,2] + 10 x_kij[0,4,3] + 7 x_kij[0,4,5] + 8 x_kij[0,4,6]
   + 6 x_kij[0,4,7] + 100 x_kij[0,5,0] + 15 x_kij[0,5,1] + 100 x_kij[0,5,2]
   + 7 x_kij[0,5,3] + 7 x_kij[0,5,4] + 4 x_kij[0,5,6] + 100 x_kij[0,5,7]
   + 100 x_kij[0,6,0] + 100 x_kij[0,6,1] + 100 x_kij[0,6,2]
   + 15 x_kij[0,6,3] + 8 x_kij[0,6,4] + 4 x_kij[0,6,5] + 5 x_kij[0,6,7]
   + 100 x_kij[0,7,0] + 100 x_kij[0,7,1] + 100 x_kij[0,7,2]
   + 100 x_kij[0,7,3] + 6 x_kij[0,7,4] + 100 x_kij[0,7,5] + 5 x_kij[0,7,6]
Subject To
 R0: x_kij[0,0,1] + x_kij[0,0,2] + x_kij[0,0,3] + x_kij[0,0,7] = 1
 R1: x_kij[0,4,7] + x_kij[0,5,7] + x_kij[0,6,7] = 1
 R2: - x_kij[0,0,0] - x_kij[0,0,1] - x_kij[0,0,2] - x_kij[0,0,3]
   - x_kij[0,0,4] - x_kij[0,0,5] - x_kij[0,0,6] + x_kij[0,1,0]
   + x_kij[0,2,0] + x_kij[0,3,0] + x_kij[0,4,0] + x_kij[0,5,0]
   + x_kij[0,6,0] + x_kij[0,7,0] = 0
 R3: - x_kij[0,1,0] - x_kij[0,1,2] - x_kij[0,1,3] - x_kij[0,1,4]
   - x_kij[0,1,5] - x_kij[0,1,6] + x_kij[0,2,1] + x_kij[0,3,1]
   + x_kij[0,4,1] + x_kij[0,5,1] + x_kij[0,6,1] + x_kij[0,7,1] = 0
 R4: x_kij[0,1,2] - x_kij[0,2,0] - x_kij[0,2,1] - x_kij[0,2,3]
   - x_kij[0,2,4] - x_kij[0,2,5] - x_kij[0,2,6] + x_kij[0,3,2]
   + x_kij[0,4,2] + x_kij[0,5,2] + x_kij[0,6,2] + x_kij[0,7,2] = 0
 R5: x_kij[0,1,3] + x_kij[0,2,3] - x_kij[0,3,0] - x_kij[0,3,1]
   - x_kij[0,3,2] - x_kij[0,3,4] - x_kij[0,3,5] - x_kij[0,3,6]
   + x_kij[0,4,3] + x_kij[0,5,3] + x_kij[0,6,3] + x_kij[0,7,3] = 0
 R6: x_kij[0,1,4] + x_kij[0,2,4] + x_kij[0,3,4] - x_kij[0,4,0]
   - x_kij[0,4,1] - x_kij[0,4,2] - x_kij[0,4,3] - x_kij[0,4,5]
   - x_kij[0,4,6] + x_kij[0,5,4] + x_kij[0,6,4] + x_kij[0,7,4] = 0
 R7: x_kij[0,1,5] + x_kij[0,2,5] + x_kij[0,3,5] + x_kij[0,4,5]
   - x_kij[0,5,0] - x_kij[0,5,1] - x_kij[0,5,2] - x_kij[0,5,3]
   - x_kij[0,5,4] - x_kij[0,5,6] + x_kij[0,6,5] + x_kij[0,7,5] = 0
 R8: x_kij[0,1,6] + x_kij[0,2,6] + x_kij[0,3,6] + x_kij[0,4,6]
   + x_kij[0,5,6] - x_kij[0,6,0] - x_kij[0,6,1] - x_kij[0,6,2]
   - x_kij[0,6,3] - x_kij[0,6,4] - x_kij[0,6,5] + x_kij[0,7,6] = 0
 R9: x_kij[0,1,7] + x_kij[0,2,7] + x_kij[0,3,7] + x_kij[0,4,7]
   + x_kij[0,5,7] + x_kij[0,6,7] - x_kij[0,7,0] - x_kij[0,7,1]
   - x_kij[0,7,2] - x_kij[0,7,3] - x_kij[0,7,4] - x_kij[0,7,5]
   - x_kij[0,7,6] + x_kij[0,7,7] = 0
 R10: x_kij[0,1,0] + x_kij[0,2,0] + x_kij[0,3,0] - x_kij[0,4,0]
   - x_kij[0,5,0] - x_kij[0,6,0] = 0
 R11: x_kij[0,1,1] + x_kij[0,2,1] + x_kij[0,3,1] - x_kij[0,4,1]
   - x_kij[0,5,1] - x_kij[0,6,1] = 0
 R12: x_kij[0,1,2] + x_kij[0,2,2] + x_kij[0,3,2] - x_kij[0,4,2]
   - x_kij[0,5,2] - x_kij[0,6,2] = 0
 R13: x_kij[0,1,3] + x_kij[0,2,3] + x_kij[0,3,3] - x_kij[0,4,3]
   - x_kij[0,5,3] - x_kij[0,6,3] = 0
 R14: x_kij[0,1,4] + x_kij[0,2,4] + x_kij[0,3,4] - x_kij[0,4,4]
   - x_kij[0,5,4] - x_kij[0,6,4] = 0
 R15: x_kij[0,1,5] + x_kij[0,2,5] + x_kij[0,3,5] - x_kij[0,4,5]
   - x_kij[0,5,5] - x_kij[0,6,5] = 0
 R16: x_kij[0,1,6] + x_kij[0,2,6] + x_kij[0,3,6] - x_kij[0,4,6]
   - x_kij[0,5,6] - x_kij[0,6,6] = 0
 R17: x_kij[0,1,7] + x_kij[0,2,7] + x_kij[0,3,7] - x_kij[0,4,7]
   - x_kij[0,5,7] - x_kij[0,6,7] = 0
 R18: x_kij[0,1,0] + x_kij[0,1,1] + x_kij[0,1,2] + x_kij[0,1,3]
   + x_kij[0,1,4] + x_kij[0,1,5] + x_kij[0,1,6] + x_kij[0,1,7] - z_i[1]
   = 0
 R19: x_kij[0,2,0] + x_kij[0,2,1] + x_kij[0,2,2] + x_kij[0,2,3]
   + x_kij[0,2,4] + x_kij[0,2,5] + x_kij[0,2,6] + x_kij[0,2,7] - z_i[2]
   = 0
 R20: x_kij[0,3,0] + x_kij[0,3,1] + x_kij[0,3,2] + x_kij[0,3,3]
   + x_kij[0,3,4] + x_kij[0,3,5] + x_kij[0,3,6] + x_kij[0,3,7] - z_i[3]
   = 0
 R21: x_kij[0,0,0] + x_kij[0,1,0] + x_kij[0,2,0] + x_kij[0,3,0]
   + x_kij[0,4,0] + x_kij[0,5,0] + x_kij[0,6,0] + x_kij[0,7,0] <= 1
 R22: x_kij[0,0,1] + x_kij[0,1,1] + x_kij[0,2,1] + x_kij[0,3,1]
   + x_kij[0,4,1] + x_kij[0,5,1] + x_kij[0,6,1] + x_kij[0,7,1] <= 1
 R23: x_kij[0,0,2] + x_kij[0,1,2] + x_kij[0,2,2] + x_kij[0,3,2]
   + x_kij[0,4,2] + x_kij[0,5,2] + x_kij[0,6,2] + x_kij[0,7,2] <= 1
 R24: x_kij[0,0,3] + x_kij[0,1,3] + x_kij[0,2,3] + x_kij[0,3,3]
   + x_kij[0,4,3] + x_kij[0,5,3] + x_kij[0,6,3] + x_kij[0,7,3] <= 1
 R25: x_kij[0,0,4] + x_kij[0,1,4] + x_kij[0,2,4] + x_kij[0,3,4]
   + x_kij[0,4,4] + x_kij[0,5,4] + x_kij[0,6,4] + x_kij[0,7,4] <= 1
 R26: x_kij[0,0,5] + x_kij[0,1,5] + x_kij[0,2,5] + x_kij[0,3,5]
   + x_kij[0,4,5] + x_kij[0,5,5] + x_kij[0,6,5] + x_kij[0,7,5] <= 1
 R27: x_kij[0,0,6] + x_kij[0,1,6] + x_kij[0,2,6] + x_kij[0,3,6]
   + x_kij[0,4,6] + x_kij[0,5,6] + x_kij[0,6,6] + x_kij[0,7,6] <= 1
 R28: x_kij[0,0,7] + x_kij[0,1,7] + x_kij[0,2,7] + x_kij[0,3,7]
   + x_kij[0,4,7] + x_kij[0,5,7] + x_kij[0,6,7] + x_kij[0,7,7] <= 1
 R29: 2 x_kij[0,1,1] <= 1
 R30: x_kij[0,1,2] + x_kij[0,2,1] <= 1
 R31: x_kij[0,1,3] + x_kij[0,3,1] <= 1
 R32: x_kij[0,1,2] + x_kij[0,2,1] <= 1
 R33: 2 x_kij[0,2,2] <= 1
 R34: x_kij[0,2,3] + x_kij[0,3,2] <= 1
 R35: x_kij[0,1,3] + x_kij[0,3,1] <= 1
 R36: x_kij[0,2,3] + x_kij[0,3,2] <= 1
 R37: 2 x_kij[0,3,3] <= 1
 R38: t_ki[0,1] - t_ki[0,4] <= -100
 R39: t_ki[0,2] - t_ki[0,5] <= -100
 R40: t_ki[0,3] - t_ki[0,6] <= -15
 R41: 100000 x_kij[0,0,1] + t_ki[0,0] - t_ki[0,1] <= 99994
 R42: 100000 x_kij[0,0,2] + t_ki[0,0] - t_ki[0,2] <= 99992
 R43: 100000 x_kij[0,0,3] + t_ki[0,0] - t_ki[0,3] <= 99988
 R44: 100000 x_kij[0,0,4] + t_ki[0,0] - t_ki[0,4] <= 99900
 R45: 100000 x_kij[0,0,5] + t_ki[0,0] - t_ki[0,5] <= 99900
 R46: 100000 x_kij[0,0,6] + t_ki[0,0] - t_ki[0,6] <= 99900
 R47: 100000 x_kij[0,0,7] + t_ki[0,0] - t_ki[0,7] <= 99900
 R48: 100000 x_kij[0,1,0] - t_ki[0,0] + t_ki[0,1] <= 99994
 R49: 100000 x_kij[0,1,2] + t_ki[0,1] - t_ki[0,2] <= 99993
 R50: 100000 x_kij[0,1,3] + t_ki[0,1] - t_ki[0,3] <= 99995
 R51: 100000 x_kij[0,1,4] + t_ki[0,1] - t_ki[0,4] <= 99900
 R52: 100000 x_kij[0,1,5] + t_ki[0,1] - t_ki[0,5] <= 99985
 R53: 100000 x_kij[0,1,6] + t_ki[0,1] - t_ki[0,6] <= 99900
 R54: 100000 x_kij[0,1,7] + t_ki[0,1] - t_ki[0,7] <= 99900
 R55: 100000 x_kij[0,2,0] - t_ki[0,0] + t_ki[0,2] <= 99992
 R56: 100000 x_kij[0,2,1] - t_ki[0,1] + t_ki[0,2] <= 99993
 R57: 100000 x_kij[0,2,3] + t_ki[0,2] - t_ki[0,3] <= 99996
 R58: 100000 x_kij[0,2,4] + t_ki[0,2] - t_ki[0,4] <= 99985
 R59: 100000 x_kij[0,2,5] + t_ki[0,2] - t_ki[0,5] <= 99900
 R60: 100000 x_kij[0,2,6] + t_ki[0,2] - t_ki[0,6] <= 99900
 R61: 100000 x_kij[0,2,7] + t_ki[0,2] - t_ki[0,7] <= 99900
 R62: 100000 x_kij[0,3,0] - t_ki[0,0] + t_ki[0,3] <= 99988
 R63: 100000 x_kij[0,3,1] - t_ki[0,1] + t_ki[0,3] <= 99995
 R64: 100000 x_kij[0,3,2] - t_ki[0,2] + t_ki[0,3] <= 99996
 R65: 100000 x_kij[0,3,4] + t_ki[0,3] - t_ki[0,4] <= 99990
 R66: 100000 x_kij[0,3,5] + t_ki[0,3] - t_ki[0,5] <= 99993
 R67: 100000 x_kij[0,3,6] + t_ki[0,3] - t_ki[0,6] <= 99985
 R68: 100000 x_kij[0,3,7] + t_ki[0,3] - t_ki[0,7] <= 99900
 R69: 100000 x_kij[0,4,0] - t_ki[0,0] + t_ki[0,4] <= 99900
 R70: 100000 x_kij[0,4,1] - t_ki[0,1] + t_ki[0,4] <= 99900
 R71: 100000 x_kij[0,4,2] - t_ki[0,2] + t_ki[0,4] <= 99985
 R72: 100000 x_kij[0,4,3] - t_ki[0,3] + t_ki[0,4] <= 99990
 R73: 100000 x_kij[0,4,5] + t_ki[0,4] - t_ki[0,5] <= 99993
 R74: 100000 x_kij[0,4,6] + t_ki[0,4] - t_ki[0,6] <= 99992
 R75: 100000 x_kij[0,4,7] + t_ki[0,4] - t_ki[0,7] <= 99994
 R76: 100000 x_kij[0,5,0] - t_ki[0,0] + t_ki[0,5] <= 99900
 R77: 100000 x_kij[0,5,1] - t_ki[0,1] + t_ki[0,5] <= 99985
 R78: 100000 x_kij[0,5,2] - t_ki[0,2] + t_ki[0,5] <= 99900
 R79: 100000 x_kij[0,5,3] - t_ki[0,3] + t_ki[0,5] <= 99993
 R80: 100000 x_kij[0,5,4] - t_ki[0,4] + t_ki[0,5] <= 99993
 R81: 100000 x_kij[0,5,6] + t_ki[0,5] - t_ki[0,6] <= 99996
 R82: 100000 x_kij[0,5,7] + t_ki[0,5] - t_ki[0,7] <= 99900
 R83: 100000 x_kij[0,6,0] - t_ki[0,0] + t_ki[0,6] <= 99900
 R84: 100000 x_kij[0,6,1] - t_ki[0,1] + t_ki[0,6] <= 99900
 R85: 100000 x_kij[0,6,2] - t_ki[0,2] + t_ki[0,6] <= 99900
 R86: 100000 x_kij[0,6,3] - t_ki[0,3] + t_ki[0,6] <= 99985
 R87: 100000 x_kij[0,6,4] - t_ki[0,4] + t_ki[0,6] <= 99992
 R88: 100000 x_kij[0,6,5] - t_ki[0,5] + t_ki[0,6] <= 99996
 R89: 100000 x_kij[0,6,7] + t_ki[0,6] - t_ki[0,7] <= 99995
 R90: 100000 x_kij[0,7,0] - t_ki[0,0] + t_ki[0,7] <= 99900
 R91: 100000 x_kij[0,7,1] - t_ki[0,1] + t_ki[0,7] <= 99900
 R92: 100000 x_kij[0,7,2] - t_ki[0,2] + t_ki[0,7] <= 99900
 R93: 100000 x_kij[0,7,3] - t_ki[0,3] + t_ki[0,7] <= 99900
 R94: 100000 x_kij[0,7,4] - t_ki[0,4] + t_ki[0,7] <= 99994
 R95: 100000 x_kij[0,7,5] - t_ki[0,5] + t_ki[0,7] <= 99900
 R96: 100000 x_kij[0,7,6] - t_ki[0,6] + t_ki[0,7] <= 99995
 R97: t_ki[0,4] >= 5
 R98: t_ki[0,5] >= 5
 R99: t_ki[0,6] >= 5
 R100: t_ki[0,4] <= 14000
 R101: t_ki[0,5] <= 14000
 R102: t_ki[0,6] <= 14000
 R103: t_ki[0,7] >= 5
 R104: t_ki[0,7] <= 14000
 R105: - t_ki[0,1] + t_ki[0,4] <= 100
 R106: - t_ki[0,2] + t_ki[0,5] <= 100
 R107: - t_ki[0,3] + t_ki[0,6] <= 100
 R108: - t_ki[0,0] + t_ki[0,7] <= 100
 R109: x_kij[0,1,0] + x_kij[0,1,1] + x_kij[0,1,2] + x_kij[0,1,3]
   + x_kij[0,1,4] + x_kij[0,1,5] + x_kij[0,1,6] + x_kij[0,1,7]
   + x_kij[0,2,0] + x_kij[0,2,1] + x_kij[0,2,2] + x_kij[0,2,3]
   + x_kij[0,2,4] + x_kij[0,2,5] + x_kij[0,2,6] + x_kij[0,2,7]
   + x_kij[0,3,0] + x_kij[0,3,1] + x_kij[0,3,2] + x_kij[0,3,3]
   + x_kij[0,3,4] + x_kij[0,3,5] + x_kij[0,3,6] + x_kij[0,3,7] <= 4
Bounds
Binaries
 x_kij[0,0,0] x_kij[0,0,1] x_kij[0,0,2] x_kij[0,0,3] x_kij[0,0,4]
 x_kij[0,0,5] x_kij[0,0,6] x_kij[0,0,7] x_kij[0,1,0] x_kij[0,1,1]
 x_kij[0,1,2] x_kij[0,1,3] x_kij[0,1,4] x_kij[0,1,5] x_kij[0,1,6]
 x_kij[0,1,7] x_kij[0,2,0] x_kij[0,2,1] x_kij[0,2,2] x_kij[0,2,3]
 x_kij[0,2,4] x_kij[0,2,5] x_kij[0,2,6] x_kij[0,2,7] x_kij[0,3,0]
 x_kij[0,3,1] x_kij[0,3,2] x_kij[0,3,3] x_kij[0,3,4] x_kij[0,3,5]
 x_kij[0,3,6] x_kij[0,3,7] x_kij[0,4,0] x_kij[0,4,1] x_kij[0,4,2]
 x_kij[0,4,3] x_kij[0,4,4] x_kij[0,4,5] x_kij[0,4,6] x_kij[0,4,7]
 x_kij[0,5,0] x_kij[0,5,1] x_kij[0,5,2] x_kij[0,5,3] x_kij[0,5,4]
 x_kij[0,5,5] x_kij[0,5,6] x_kij[0,5,7] x_kij[0,6,0] x_kij[0,6,1]
 x_kij[0,6,2] x_kij[0,6,3] x_kij[0,6,4] x_kij[0,6,5] x_kij[0,6,6]
 x_kij[0,6,7] x_kij[0,7,0] x_kij[0,7,1] x_kij[0,7,2] x_kij[0,7,3]
 x_kij[0,7,4] x_kij[0,7,5] x_kij[0,7,6] x_kij[0,7,7] z_i[1] z_i[2] z_i[3]
End
